p edge 64 512
e 1 41
e 1 4
e 1 51
e 1 36
e 1 62
e 1 53
e 1 48
e 1 60
e 1 43
e 1 12
e 1 13
e 1 3
e 1 24
e 1 57
e 1 47
e 1 58
e 1 8
e 2 49
e 2 21
e 2 39
e 2 55
e 2 31
e 2 50
e 2 3
e 2 11
e 2 51
e 2 34
e 2 63
e 2 25
e 2 4
e 3 20
e 3 4
e 3 35
e 3 53
e 3 45
e 3 10
e 3 63
e 3 5
e 3 32
e 3 51
e 3 18
e 3 52
e 3 33
e 3 12
e 3 60
e 3 21
e 3 49
e 3 44
e 3 39
e 3 25
e 3 62
e 4 23
e 4 24
e 4 35
e 4 7
e 4 57
e 4 63
e 4 29
e 4 50
e 4 11
e 4 59
e 4 44
e 4 19
e 4 36
e 4 25
e 4 13
e 5 6
e 5 35
e 5 48
e 5 29
e 5 32
e 5 33
e 5 62
e 5 40
e 5 23
e 5 38
e 5 7
e 5 60
e 5 42
e 5 64
e 5 20
e 5 34
e 5 63
e 6 57
e 6 21
e 6 54
e 6 50
e 6 32
e 6 8
e 6 18
e 6 13
e 6 16
e 6 10
e 6 40
e 6 51
e 7 10
e 7 59
e 7 63
e 7 43
e 7 14
e 7 60
e 7 42
e 7 46
e 7 47
e 7 54
e 7 55
e 7 15
e 7 49
e 7 32
e 7 16
e 7 17
e 7 25
e 7 34
e 7 22
e 7 28
e 8 46
e 8 40
e 8 57
e 8 49
e 8 64
e 8 27
e 8 63
e 8 54
e 8 14
e 8 50
e 8 35
e 8 59
e 8 9
e 8 12
e 8 34
e 8 48
e 8 52
e 9 50
e 9 39
e 9 34
e 9 64
e 9 29
e 9 37
e 9 48
e 9 24
e 9 19
e 9 25
e 9 15
e 9 12
e 9 41
e 9 16
e 10 53
e 10 43
e 10 41
e 10 64
e 10 57
e 10 21
e 10 59
e 10 16
e 10 60
e 10 26
e 10 38
e 10 42
e 10 47
e 10 35
e 10 30
e 11 19
e 11 28
e 11 49
e 11 30
e 11 52
e 11 34
e 11 46
e 11 33
e 11 35
e 11 51
e 12 56
e 12 38
e 12 39
e 12 30
e 12 47
e 12 21
e 12 60
e 12 18
e 12 51
e 12 37
e 12 33
e 12 14
e 12 50
e 12 19
e 12 34
e 12 62
e 12 44
e 12 63
e 12 24
e 12 64
e 12 15
e 12 22
e 13 49
e 13 16
e 13 64
e 13 15
e 13 54
e 13 59
e 13 17
e 13 33
e 13 40
e 13 31
e 13 34
e 13 61
e 13 19
e 13 21
e 14 42
e 14 31
e 14 35
e 14 51
e 14 56
e 14 62
e 14 60
e 14 48
e 14 41
e 14 38
e 14 34
e 14 64
e 15 29
e 15 20
e 15 43
e 15 56
e 15 45
e 15 60
e 15 44
e 15 52
e 15 38
e 15 57
e 15 50
e 15 18
e 15 21
e 15 30
e 15 35
e 15 32
e 16 50
e 16 24
e 16 22
e 16 62
e 16 44
e 16 40
e 16 48
e 16 34
e 16 55
e 16 28
e 16 43
e 16 52
e 17 61
e 17 44
e 17 64
e 17 58
e 17 49
e 17 32
e 17 54
e 17 31
e 17 33
e 18 55
e 18 50
e 18 24
e 18 36
e 18 57
e 18 32
e 18 33
e 18 58
e 19 27
e 19 37
e 19 64
e 19 32
e 19 36
e 19 38
e 19 40
e 19 59
e 19 54
e 19 45
e 20 26
e 20 35
e 20 29
e 20 33
e 20 62
e 20 54
e 20 31
e 20 53
e 20 57
e 20 49
e 20 38
e 21 57
e 21 26
e 21 47
e 21 23
e 21 39
e 21 42
e 21 38
e 21 30
e 21 29
e 21 27
e 21 41
e 21 35
e 21 36
e 22 49
e 22 30
e 22 23
e 22 42
e 22 56
e 22 59
e 22 61
e 22 40
e 22 26
e 22 50
e 23 24
e 23 41
e 23 58
e 23 30
e 23 37
e 23 62
e 23 53
e 23 44
e 23 49
e 23 54
e 24 25
e 24 49
e 24 43
e 24 32
e 24 61
e 24 63
e 24 56
e 24 39
e 24 28
e 24 35
e 24 44
e 24 52
e 25 46
e 25 40
e 25 30
e 25 29
e 25 45
e 25 42
e 25 50
e 25 33
e 25 61
e 25 63
e 26 63
e 26 64
e 26 35
e 26 40
e 26 61
e 26 37
e 26 58
e 26 41
e 26 52
e 26 27
e 26 54
e 27 46
e 27 49
e 27 47
e 27 54
e 27 35
e 28 54
e 28 57
e 28 64
e 28 56
e 28 35
e 28 46
e 28 34
e 28 55
e 28 47
e 28 59
e 28 51
e 28 52
e 28 39
e 28 37
e 29 31
e 29 56
e 29 37
e 29 32
e 29 33
e 29 30
e 29 35
e 29 60
e 29 38
e 29 59
e 30 52
e 30 42
e 30 57
e 30 58
e 30 55
e 30 61
e 30 32
e 31 61
e 31 38
e 31 50
e 31 49
e 32 60
e 32 38
e 32 61
e 32 53
e 33 41
e 33 63
e 33 38
e 33 44
e 33 53
e 33 50
e 33 39
e 33 47
e 33 48
e 33 61
e 34 50
e 34 64
e 34 63
e 34 57
e 34 61
e 34 58
e 34 55
e 34 53
e 34 60
e 35 51
e 35 42
e 35 57
e 35 59
e 35 38
e 35 63
e 35 45
e 35 48
e 36 54
e 36 45
e 36 39
e 36 63
e 37 44
e 37 43
e 37 57
e 37 53
e 37 63
e 37 40
e 37 55
e 37 51
e 37 56
e 38 63
e 38 47
e 38 55
e 38 62
e 38 42
e 38 52
e 38 60
e 39 63
e 39 56
e 39 57
e 40 64
e 40 59
e 40 50
e 40 43
e 40 56
e 41 46
e 41 47
e 41 52
e 41 59
e 41 54
e 41 49
e 42 55
e 42 46
e 42 54
e 42 44
e 43 53
e 43 45
e 44 63
e 44 50
e 44 60
e 45 48
e 45 58
e 45 63
e 45 57
e 46 49
e 46 58
e 46 60
e 46 57
e 46 53
e 47 58
e 47 56
e 47 53
e 47 49
e 47 62
e 48 50
e 48 64
e 48 63
e 48 54
e 48 61
e 48 49
e 49 50
e 49 60
e 49 57
e 49 53
e 50 58
e 52 58
e 52 56
e 52 64
e 53 62
e 53 64
e 53 54
e 54 60
e 54 64
e 55 56
e 55 61
e 55 63
e 56 58
e 56 63
e 57 59
e 58 60
e 58 62
e 58 64
e 59 62
e 59 63
e 60 64
e 61 62
e 62 64
